DIMENSION :12
NODE_COORD_SECTION
1 85.3628915281715 71.2358201383727
2 39.3944136672537 33.00106743789581
3 89.42908040506353 8.472297085573103
4 71.46190675689189 -69.76095241261066
5 -52.24493785076507 -10.564730174818322
6 83.67658716524676 23.111075944592784
7 64.83002249021479 70.46283586710467
8 -34.49360215430262 97.08226097330265
9 -68.47953149902443 46.81988335813989
10 99.02940357387689 80.70937101829972
11 -25.54833000931373 -58.293756226014516
12 -46.79218768062927 73.42054136336691
EOF
